Route #1: 55 23 7 14
Route #2: 50 12 22 4 26 32 43
Route #3: 13 17 57 52 31 60 28 39
Route #4: 35 18 48 16 1 11 44
Route #5: 9 51
Route #6: 34 47 56 27 21 36 29 58
Route #7: 20 41 8 53 40 19
Route #8: 49 2 46 54 5 6 25
Route #9: 3 38 15
Route #10: 33 42 30 37 45 59 10 24
Cost 1038
Time 0.125303
